n = 14;
w = 20;
h = 20;
%ws = [3, 3, 3, 3, 3, 3, 3, 3, 3, 3, 4, 4, 4, 4];
%hs = [3, 4, 5, 6, 7, 8, 9, 10, 11, 17, 3, 9, 11, 17];

ws = [4, 3, 4, 3, 4, 3, 3, 3, 3, 3, 3, 4, 3, 3];
hs = [17, 17, 11, 11, 9, 10, 9, 8, 7, 6, 5, 3, 4, 3];